198
0 65 137 28 133 12 71 58 138 140 
161 156 63 87 3 139 42 165 40 13 
110 192 112 14 182 45 152 69 52 91 
51 122 105 167 89 76 150 146 130 46 
162 50 70 164 103 48 148 154 129 155 
118 74 180 107 60 197 6 29 153 22 
96 101 39 20 5 100 94 15 83 99 
80 93 55 49 131 21 175 127 193 86 
157 32 184 1 9 26 113 147 8 30 
10 95 72 189 145 134 119 77 37 120 
59 67 166 84 41 135 62 7 11 109 
117 54 36 85 160 24 44 159 61 53 
56 98 43 35 78 17 73 171 38 195 
142 121 132 190 114 116 81 111 186 144 
16 104 57 92 191 179 172 64 181 158 
188 196 19 169 187 174 23 141 124 25 
183 176 185 31 168 151 79 33 90 128 
75 68 88 66 178 4 18 126 82 108 
115 2 170 125 177 27 149 97 123 173 
143 102 47 163 194 136 106 34 
